; QueryHash 284030167741237064
(set-logic QF_AUFBV )
(declare-fun arg01 () (Array (_ BitVec 32) (_ BitVec 8) ) )
(assert (let ( (?B1 (select  arg01 (_ bv5 32) ) ) ) (and  (=  false (=  (_ bv1 8) ?B1 ) ) (=  false (=  (_ bv0 8) ?B1 ) ) ) ) )
(check-sat)
(exit)

; Assignments
; { "arg00": [0, 0, 0, 0, 0, 0, 0, 0, 0, 1, 0] }
; { "arg00": [0, 0, 0, 0, 0, 0, 0, 0, 0, 101, 0] }
; { "arg00": [0, 0, 0, 0, 0, 0, 0, 0, 0, 110, 0] }
; { "arg00": [0, 0, 0, 0, 0, 0, 0, 0, 0, 2, 0] }
; { "arg00": [0, 0, 0, 0, 0, 0, 0, 0, 0, 69, 0] }
; { "arg00": [0, 0, 0, 0, 0, 0, 0, 0, 1, 0, 0] }
; { "arg00": [0, 0, 0, 0, 0, 0, 0, 0, 101, 0, 0] }
; { "arg00": [0, 0, 0, 0, 0, 0, 0, 0, 110, 0, 0] }
; { "arg00": [0, 0, 0, 0, 0, 0, 0, 0, 2, 0, 0] }
; { "arg00": [0, 0, 0, 0, 0, 0, 0, 0, 69, 0, 0] }
; { "arg00": [0, 0, 0, 0, 0, 0, 0, 1, 0, 0, 0] }
; { "arg00": [0, 0, 0, 0, 0, 0, 0, 101, 0, 0, 0] }
; { "arg00": [0, 0, 0, 0, 0, 0, 0, 110, 0, 0, 0] }
; { "arg00": [0, 0, 0, 0, 0, 0, 0, 111, 0, 0, 0] }
; { "arg00": [0, 0, 0, 0, 0, 0, 0, 2, 0, 0, 0] }
; { "arg00": [0, 0, 0, 0, 0, 0, 0, 69, 0, 0, 0] }
; { "arg00": [0, 0, 0, 0, 0, 0, 1, 0, 0, 0, 0] }
; { "arg00": [0, 0, 0, 0, 0, 0, 101, 0, 0, 0, 0] }
; { "arg00": [0, 0, 0, 0, 0, 0, 105, 0, 0, 0, 0] }
; { "arg00": [0, 0, 0, 0, 0, 0, 110, 0, 0, 0, 0] }
; { "arg00": [0, 0, 0, 0, 0, 0, 2, 0, 0, 0, 0] }
; { "arg00": [0, 0, 0, 0, 0, 0, 69, 0, 0, 0, 0] }
; { "arg00": [0, 0, 0, 0, 0, 1, 0, 0, 0, 0, 0] }
; { "arg00": [0, 0, 0, 0, 0, 101, 0, 0, 0, 0, 0] }
; { "arg00": [0, 0, 0, 0, 0, 110, 0, 0, 0, 0, 0] }
; { "arg00": [0, 0, 0, 0, 0, 112, 0, 0, 0, 0, 0] }
; { "arg00": [0, 0, 0, 0, 0, 115, 0, 0, 0, 0, 0] }
; { "arg00": [0, 0, 0, 0, 0, 69, 0, 0, 0, 0, 0] }
; { "arg00": [0, 0, 0, 0, 1, 0, 0, 0, 0, 0, 0] }
; { "arg00": [0, 0, 0, 0, 101, 0, 0, 0, 0, 0, 0] }
; { "arg00": [0, 0, 0, 0, 108, 0, 0, 0, 0, 0, 0] }
; { "arg00": [0, 0, 0, 0, 110, 0, 0, 0, 0, 0, 0] }
; { "arg00": [0, 0, 0, 0, 114, 0, 0, 0, 0, 0, 0] }
; { "arg00": [0, 0, 0, 0, 69, 0, 0, 0, 0, 0, 0] }
; { "arg00": [0, 0, 0, 1, 0, 0, 0, 0, 0, 0, 0] }
; { "arg00": [0, 0, 0, 101, 0, 0, 0, 0, 0, 0, 0] }
; { "arg00": [0, 0, 0, 110, 0, 0, 0, 0, 0, 0, 0] }
; { "arg00": [0, 0, 0, 69, 0, 0, 0, 0, 0, 0, 0] }
; { "arg00": [0, 0, 101, 0, 0, 0, 0, 0, 0, 0, 0] }
; { "arg00": [0, 0, 104, 0, 0, 0, 0, 0, 0, 0, 0] }
; { "arg00": [0, 0, 110, 0, 0, 0, 0, 0, 0, 0, 0] }
; { "arg00": [0, 0, 118, 0, 0, 0, 0, 0, 0, 0, 0] }
; { "arg00": [0, 0, 69, 0, 0, 0, 0, 0, 0, 0, 0] }
; { "arg00": [0, 1, 0, 0, 0, 0, 0, 0, 0, 0, 0] }
; { "arg00": [0, 101, 0, 0, 0, 0, 0, 0, 0, 0, 0] }
; { "arg00": [0, 110, 0, 0, 0, 0, 0, 0, 0, 0, 0] }
; { "arg00": [0, 2, 0, 0, 0, 0, 0, 0, 0, 0, 0] }
; { "arg00": [0, 45, 0, 0, 0, 0, 0, 0, 0, 0, 0] }
; { "arg00": [0, 69, 0, 0, 0, 0, 0, 0, 0, 0, 0] }
; { "arg00": [1, 0, 0, 0, 0, 0, 0, 0, 0, 0, 0] }
; { "arg00": [45, 0, 0, 0, 0, 0, 0, 0, 0, 0, 0] }
; { "arg01": [0, 0, 0, 0, 0, 0, 0, 0, 0, 1, 0] }
; { "arg01": [0, 0, 0, 0, 0, 0, 0, 0, 1, 0, 0] }
; { "arg01": [0, 0, 0, 0, 0, 0, 0, 1, 0, 0, 0] }
; { "arg01": [0, 0, 0, 0, 0, 0, 1, 0, 0, 0, 0] }
; { "arg01": [0, 0, 0, 0, 0, 1, 0, 0, 0, 0, 0] }
; { "arg01": [0, 0, 0, 0, 1, 0, 0, 0, 0, 0, 0] }
; { "arg01": [0, 0, 0, 0, 101, 0, 0, 0, 0, 0, 0] }
; { "arg01": [0, 0, 0, 0, 110, 0, 0, 0, 0, 0, 0] }
; { "arg01": [0, 0, 0, 0, 2, 0, 0, 0, 0, 0, 0] }
; { "arg01": [0, 0, 0, 0, 48, 0, 0, 0, 0, 0, 0] }
; { "arg01": [0, 0, 0, 0, 69, 0, 0, 0, 0, 0, 0] }
; { "arg01": [0, 0, 0, 1, 0, 0, 0, 0, 0, 0, 0] }
; { "arg01": [0, 0, 0, 100, 0, 0, 0, 0, 0, 0, 0] }
; { "arg01": [0, 0, 0, 101, 0, 0, 0, 0, 0, 0, 0] }
; { "arg01": [0, 0, 0, 102, 0, 0, 0, 0, 0, 0, 0] }
; { "arg01": [0, 0, 0, 110, 0, 0, 0, 0, 0, 0, 0] }
; { "arg01": [0, 0, 0, 2, 0, 0, 0, 0, 0, 0, 0] }
; { "arg01": [0, 0, 0, 48, 0, 0, 0, 0, 0, 0, 0] }
; { "arg01": [0, 0, 0, 65, 0, 0, 0, 0, 0, 0, 0] }
; { "arg01": [0, 0, 0, 66, 0, 0, 0, 0, 0, 0, 0] }
; { "arg01": [0, 0, 0, 67, 0, 0, 0, 0, 0, 0, 0] }
; { "arg01": [0, 0, 0, 68, 0, 0, 0, 0, 0, 0, 0] }
; { "arg01": [0, 0, 0, 69, 0, 0, 0, 0, 0, 0, 0] }
; { "arg01": [0, 0, 0, 70, 0, 0, 0, 0, 0, 0, 0] }
; { "arg01": [0, 0, 0, 97, 0, 0, 0, 0, 0, 0, 0] }
; { "arg01": [0, 0, 0, 98, 0, 0, 0, 0, 0, 0, 0] }
; { "arg01": [0, 0, 0, 99, 0, 0, 0, 0, 0, 0, 0] }
; { "arg01": [0, 0, 1, 0, 0, 0, 0, 0, 0, 0, 0] }
; { "arg01": [0, 0, 100, 0, 0, 0, 0, 0, 0, 0, 0] }
; { "arg01": [0, 0, 101, 0, 0, 0, 0, 0, 0, 0, 0] }
; { "arg01": [0, 0, 102, 0, 0, 0, 0, 0, 0, 0, 0] }
; { "arg01": [0, 0, 110, 0, 0, 0, 0, 0, 0, 0, 0] }
; { "arg01": [0, 0, 2, 0, 0, 0, 0, 0, 0, 0, 0] }
; { "arg01": [0, 0, 48, 0, 0, 0, 0, 0, 0, 0, 0] }
; { "arg01": [0, 0, 65, 0, 0, 0, 0, 0, 0, 0, 0] }
; { "arg01": [0, 0, 66, 0, 0, 0, 0, 0, 0, 0, 0] }
; { "arg01": [0, 0, 67, 0, 0, 0, 0, 0, 0, 0, 0] }
; { "arg01": [0, 0, 68, 0, 0, 0, 0, 0, 0, 0, 0] }
; { "arg01": [0, 0, 69, 0, 0, 0, 0, 0, 0, 0, 0] }
; { "arg01": [0, 0, 70, 0, 0, 0, 0, 0, 0, 0, 0] }
; { "arg01": [0, 0, 97, 0, 0, 0, 0, 0, 0, 0, 0] }
; { "arg01": [0, 0, 98, 0, 0, 0, 0, 0, 0, 0, 0] }
; { "arg01": [0, 0, 99, 0, 0, 0, 0, 0, 0, 0, 0] }
; { "arg01": [0, 1, 0, 0, 0, 0, 0, 0, 0, 0, 0] }
; { "arg01": [0, 101, 0, 0, 0, 0, 0, 0, 0, 0, 0] }
; { "arg01": [0, 102, 0, 0, 0, 0, 0, 0, 0, 0, 0] }
; { "arg01": [0, 110, 0, 0, 0, 0, 0, 0, 0, 0, 0] }
; { "arg01": [0, 114, 0, 0, 0, 0, 0, 0, 0, 0, 0] }
; { "arg01": [0, 116, 0, 0, 0, 0, 0, 0, 0, 0, 0] }
; { "arg01": [0, 118, 0, 0, 0, 0, 0, 0, 0, 0, 0] }
; { "arg01": [0, 120, 0, 0, 0, 0, 0, 0, 0, 0, 0] }
; { "arg01": [0, 2, 0, 0, 0, 0, 0, 0, 0, 0, 0] }
; { "arg01": [0, 48, 0, 0, 0, 0, 0, 0, 0, 0, 0] }
; { "arg01": [0, 49, 0, 0, 0, 0, 0, 0, 0, 0, 0] }
; { "arg01": [0, 50, 0, 0, 0, 0, 0, 0, 0, 0, 0] }
; { "arg01": [0, 51, 0, 0, 0, 0, 0, 0, 0, 0, 0] }
; { "arg01": [0, 52, 0, 0, 0, 0, 0, 0, 0, 0, 0] }
; { "arg01": [0, 53, 0, 0, 0, 0, 0, 0, 0, 0, 0] }
; { "arg01": [0, 54, 0, 0, 0, 0, 0, 0, 0, 0, 0] }
; { "arg01": [0, 55, 0, 0, 0, 0, 0, 0, 0, 0, 0] }
; { "arg01": [0, 69, 0, 0, 0, 0, 0, 0, 0, 0, 0] }
; { "arg01": [0, 92, 0, 0, 0, 0, 0, 0, 0, 0, 0] }
; { "arg01": [0, 97, 0, 0, 0, 0, 0, 0, 0, 0, 0] }
; { "arg01": [0, 98, 0, 0, 0, 0, 0, 0, 0, 0, 0] }
; { "arg01": [0, 99, 0, 0, 0, 0, 0, 0, 0, 0, 0] }
; { "arg01": [1, 0, 0, 0, 0, 0, 0, 0, 0, 0, 0] }
; { "arg01": [45, 0, 0, 0, 0, 0, 0, 0, 0, 0, 0] }
; { "arg01": [92, 0, 0, 0, 0, 0, 0, 0, 0, 0, 0] }
; { "model_version": [1, 0, 0, 0] }
; { "n_args": [1, 0, 0, 0] }
; { "n_args": [2, 0, 0, 0] }
; { "n_args": [255, 255, 255, 127] }
; { "n_args": [3, 0, 0, 0] }
; { "n_args": [4, 0, 0, 0] }
; { "n_args": [5, 0, 0, 0] }
; { "n_args": [6, 0, 0, 0] }
